examples/quad/farmer.lp
\ENCODING=ISO-8859-1
\Problem name: OsiDefaultName

Minimize
 obj1: 150 x1 + 230 x2 + 260 x3 + 79.33333254 x4 + 69.9999993 x5
       - 56.6666661 x6 - 49.9999995 x7 - 11.99999988 x8 - 3.3333333 x9
       + 79.33333254 x10 + 69.9999993 x11 - 56.6666661 x12 - 49.9999995 x13
       - 11.99999988 x14 - 3.3333333 x15 + 79.33333492 x16 + 70.0000014 x17
       - 56.6666678 x18 - 50.000001 x19 - 12.00000024 x20 - 3.3333334 x21
Subject To
 c1:  x1 + x2 + x3 <= 500.5
 c2:  3 x1 + x4 - x6 >= 200
 c3:  3.6 x2 + x5 - x7 >= 240
 c4:  - 24 x3 + x8 + x9 <= 0
 c5:  2.5 x1 + x10 - x12 >= 200
 c6:  3 x2 + x11 - x13 >= 240
 c7:  - 20 x3 + x14 + x15 <= 0
 c8:  2 x1 + x16 - x18 >= 200
 c9:  2.4 x2 + x17 - x19 >= 240
 c10: - 16 x3 + x20 + x21 <= 0
 q1: [ x1 ^2 ] <= 160000
Bounds
 0 <= x8 <= 6000
 0 <= x14 <= 6000
 0 <= x20 <= 6000
End
