examples/quad/farmer.txt
NAME	test
SCEN	0
 QUADROWS
 L c_1
LINTERMS
QUADTERMS
 c_1	x5	x5	1
RHS
 c_1	1000000
ENDATA	
